c ---- [ banner ] ------------------------------------------------------------
c
c Kissat SAT Solver
c 
c Copyright (c) 2021-2022 Armin Biere University of Freiburg
c Copyright (c) 2019-2021 Armin Biere Johannes Kepler University Linz
c 
c Version 3.0.0 97917ddf2b12adc6f63c7b2a5a403a1ee7d81836
c gcc (Ubuntu 9.4.0-1ubuntu1~20.04.1) 9.4.0 -W -Wall -O3 -DNDEBUG
c Fri Oct 7 14:23:58 PDT 2022 Linux jap-Lenovo-Yoga-C740-15IML 5.15.0-48-generic x86_64
c
c ---- [ parsing ] -----------------------------------------------------------
c
c opened and reading DIMACS file:
c
c   Pigeon7Holes3
c
c parsed 'p cnf 21 70' header
c closing input after reading 656 bytes
c finished parsing after 0.00 seconds
c
c ---- [ solving ] -----------------------------------------------------------
c
c  seconds switched rate      trail variables
c         MB reductions conflicts glue  remaining
c          level restarts redundant irredundant
c
c *  0.00  1 0 0 0  0 0   0   0 0% 0 70 21 95%
c {  0.00  1 0 0 0  0 0   0   0 0% 0 70 21 95%
c i  0.00  1 2 0 0  0 1   3   2 97% 1 70 20 91%
c i  0.00  1 2 0 0  0 1   4   2 98% 0 70 19 86%
c i  0.00  1 2 0 0  0 1   5   2 98% 0 70 18 82%
c i  0.00  1 2 0 0  0 1   6   2 95% 0 70 17 77%
c }  0.00  1 2 0 0  0 1   8   2 90% 0 70  0 0%
c 0  0.00  1 2 0 0  0 1   8   2 90% 0 70  0 0%
c
c ---- [ result ] ------------------------------------------------------------
c
s UNSATISFIABLE
c
c ---- [ profiling ] ---------------------------------------------------------
c
c           0.00   57.40 %  search
c           0.00   37.32 %  focused
c           0.00   17.04 %  parse
c           0.00    0.00 %  simplify
c =============================================
c           0.00  100.00 %  total
c
c ---- [ statistics ] --------------------------------------------------------
c
c conflicts:                                8             5970.15 per second
c decisions:                                9                1.12 per conflict
c propagations:                            97            72388    per second
c
c ---- [ resources ] ---------------------------------------------------------
c
c maximum-resident-set-size:           987136 bytes          1 MB
c process-time:                                              0.00 seconds
c
c ---- [ shutting down ] -----------------------------------------------------
c
c exit 20
